NAME : n150w20.002.967.tour
COMMENT : Length = 967
COMMENT : Found by LKH [Keld Helsgaun] Tue Nov  7 19:36:32 2017
TYPE : TOUR
DIMENSION : 151
TOUR_SECTION
1
42
38
104
114
47
58
93
88
71
80
77
31
103
92
22
105
25
7
57
11
149
66
85
8
5
53
30
6
142
61
35
116
94
76
52
109
130
136
119
15
56
131
12
55
86
23
147
139
16
113
91
106
70
99
18
97
59
134
132
135
64
75
29
83
33
24
36
108
98
74
72
19
110
4
14
9
79
111
60
112
81
87
21
100
62
126
107
63
43
13
40
89
137
121
127
146
138
82
115
101
141
68
96
150
48
37
67
46
2
145
118
54
128
44
143
117
10
65
102
124
45
129
123
73
69
148
144
41
28
17
133
26
51
27
49
78
50
95
122
90
32
3
20
120
84
39
140
151
34
125
-1
EOF
